(set-logic QF_S)
(declare-fun var0 () String)
(declare-fun var1 () String)
(declare-fun var2 () String)
(declare-fun var3 () Int)
(declare-fun var4 () String)
(declare-fun var5 () Int)
(declare-fun var6 () Int)
(declare-fun var7 () Int)
(assert (>= (str.len var0) (str.indexof var1 var2 var3)))
(assert (str.contains (str.substr var4 var5 var6) (str.substr var0 var7 var6)))
(assert (< (str.indexof var1 var0 var5) (str.len var0)))
(assert (str.suffixof (str.substr var2 var3 var7) (str.substr var2 var6 var5)))
(check-sat)